p cnf 26 25
-1 -2 -3 26 0 
-3 -4 26 0 
-5 26 0 
-6 26 0 
-7 -3 -8 26 0 
-1 -3 -9 -10 26 0 
-3 -11 26 0 
-12 -3 26 0 
-13 -3 26 0 
-14 26 0 
-15 -3 26 0 
-2 -3 26 0 
-3 -16 26 0 
-3 -7 -17 26 0 
-15 -1 -3 26 0 
-18 26 0 
-3 -17 26 0 
-3 -19 -17 26 0 
-20 26 0 
-3 26 0 
-21 -3 -15 26 0 
-15 -3 -16 26 0 
-22 -23 26 0 
-24 -22 -6 26 0 
-25 26 0 
